p cnf 47 160
-3 4 -5 0
3 -4 -5 0
-3 -4 5 0
3 4 5 0
-6 -5 0
-6 -2 0
5 2 6 0
7 -2 0
7 6 0
2 -6 -7 0
8 -7 0
8 -1 0
7 1 -8 0
8 9 -10 0
-8 -9 -10 0
8 -9 10 0
-8 9 10 0
1 10 -11 0
-1 -10 -11 0
1 -10 11 0
-1 10 11 0
13 1 0
13 1 0
-1 -13 0
10 -13 -14 0
-10 13 -14 0
10 13 14 0
-10 -13 14 0
15 12 0
15 -14 0
-12 14 -15 0
11 15 -16 0
-11 -15 -16 0
11 -15 16 0
-11 15 16 0
-4 -17 -18 0
4 17 -18 0
-4 17 18 0
4 -17 18 0
16 -18 -19 0
-16 18 -19 0
16 18 19 0
-16 -18 19 0
22 -20 0
22 21 0
20 -21 -22 0
23 22 0
23 6 0
-22 -6 -23 0
23 24 -25 0
-23 -24 -25 0
23 -24 25 0
-23 24 25 0
6 -12 -26 0
-6 12 -26 0
6 12 26 0
-6 -12 26 0
27 13 0
27 -13 0
28 20 0
28 -27 0
-20 27 -28 0
-29 28 0
-29 13 0
-28 -13 29 0
30 1 0
30 21 0
-1 -21 -30 0
-31 -30 0
-31 1 0
30 -1 31 0
29 -31 -32 0
-29 31 -32 0
29 31 32 0
-29 -31 32 0
-33 -26 0
-33 -32 0
26 32 33 0
12 7 -34 0
-12 -7 -34 0
12 -7 34 0
-12 7 34 0
-35 -22 0
-35 -12 0
22 12 35 0
-36 5 0
-36 4 0
-5 -4 36 0
37 36 0
37 -22 0
-36 22 -37 0
-38 -35 0
-38 37 0
35 -37 38 0
39 12 0
39 9 0
-12 -9 -39 0
-40 -6 0
-40 39 0
6 -39 40 0
-41 -3 0
-41 -9 0
3 9 41 0
-40 41 -42 0
40 -41 -42 0
-40 -41 42 0
40 41 42 0
-43 38 0
-43 -42 0
-38 42 43 0
-44 34 0
-44 -43 0
-34 43 44 0
45 -33 0
45 -44 0
33 44 -45 0
-46 25 0
-46 45 0
-25 -45 46 0
47 -19 0
47 46 0
19 -46 -47 0
37 -17 -21 0
-11 2 -4 13 19 0
47 18 0
20 1 -16 -34 -11 0
-34 3 18 0
29 25 -5 32 0
-33 39 9 0
39 15 0
31 1 0
-36 -6 0
38 20 0
31 20 -26 43 -24 0
11 -41 0
32 -30 -26 -19 4 0
-45 37 -42 0
9 -26 0
-21 3 -11 7 0
39 4 -47 -9 31 0
-18 -45 14 0
-42 34 15 -47 -23 -18 0
-17 26 -43 21 14 -40 0
-27 24 -36 0
-32 7 0
29 -42 -37 -33 0
-45 37 21 -24 0
25 12 -16 -11 6 -7 0
20 -8 9 19 0
-20 42 -5 43 0
-38 25 43 24 0
-25 42 43 -27 -32 0
13 17 -1 0
46 42 0
41 39 24 0
-22 37 -19 -1 -4 0
-18 45 -16 -31 0
-45 43 0
2 20 -8 -9 0
47 0
